HUN,8,6,926
0,28,2,3
4,24,5,21,3,22,1,22,0,14,2,26
0,16,5,18,1,29,3,29,4,15,2,17
3,1,4,12,5,13,1,21,2,24,0,12
0,9,2,16,1,28,5,7,3,21
5,21,4,25,2,16
3,15,0,22,5,18,1,24,2,22,4,20
5,17,2,23,3,12,1,27,4,14
